NAME : bier127.tsp
COMMENT : Optimal tour for bier127.tsp
TYPE : TOUR
DIMENSION : 127
Total Length: 123921.18523528548
TOUR_SECTION
1
16
37
35
44
103
45
54
57
121
56
5
52
124
66
55
47
49
53
48
118
46
94
112
111
107
127
93
95
123
98
97
42
40
36
41
14
12
31
27
30
43
34
39
38
26
25
33
122
28
29
32
117
84
81
126
82
83
101
102
63
119
96
109
88
87
86
85
110
104
125
89
92
99
65
113
64
58
100
115
13
50
51
2
7
120
10
3
90
116
60
61
91
62
59
67
73
74
68
71
70
69
75
76
78
80
79
77
18
21
17
20
108
24
23
4
22
19
72
8
9
11
114
105
6
106
15
-1
EOF
